
%FILE DATA:	Soccer Computational Problem for MiniZinc Models	%
%AUTHOR:	Jack Wall	%
%CONTACT:  	116397063@umail.ucc.ie			%
%LAST UPDATE:	03/16/2020, 13:59:12						%
%DESCRIPTION: 	168 games played with 14 games left				%


n=14; %number of teams

%Games to play
games=[|13,7|12,13|11,3|6,11|7,10|14,3|1,4|3,2|10,6|8,5|5,6|1,11|7,9|2,9|];

%Initial points
iPoints=[49,41,31,24,41,33,36,29,19,25,34,29,31,28];

%POSITION CONSTRAINTS
% [|teamID, operator, position|...]
% operators index:
%  1 for =  operator
%  2 for >  operator
%  3 for >= operator
%  4 for <  operator
%  5 for <= operator
positionConstraints=[|1,1,1|2,5,2|5,1,3|6,5,4|];